c description: Random 2-CNF over 15 variables and 80 clauses
c generator: CNFgen (0.9.0)
c copyright: (C) 2012-2020 Massimo Lauria <massimo.lauria@uniroma1.it>
c url: https://massimolauria.net/cnfgen
c
p cnf 15 80
-6 -13 0
6 -15 0
-12 -13 0
1 -9 0
-13 -14 0
1 4 0
1 2 0
-5 14 0
2 12 0
10 -11 0
-5 -14 0
-1 11 0
-4 7 0
6 -7 0
6 11 0
-7 -12 0
6 9 0
1 -15 0
4 5 0
12 13 0
-2 5 0
-6 15 0
-2 4 0
-4 -15 0
-6 -9 0
-9 15 0
8 -15 0
-7 -14 0
-8 -14 0
7 -11 0
12 -15 0
-9 14 0
-4 -11 0
1 -6 0
10 -12 0
9 -13 0
-3 -10 0
6 -14 0
1 -2 0
5 -14 0
11 -15 0
-1 -13 0
10 15 0
2 -12 0
11 -14 0
-6 9 0
12 14 0
-2 8 0
-12 13 0
-13 14 0
-5 -10 0
3 -5 0
-9 12 0
-9 -14 0
1 -11 0
8 9 0
8 10 0
-10 13 0
2 9 0
-10 -12 0
-1 14 0
7 -9 0
-4 5 0
-7 15 0
2 -4 0
7 -15 0
6 15 0
-3 -14 0
-1 -5 0
-5 15 0
-1 4 0
-2 12 0
-6 12 0
-9 10 0
13 15 0
3 13 0
3 -9 0
1 -7 0
4 6 0
-1 12 0